p cnf 17 96
1 2 3 4 5 0
1 2 3 -4 -5 0
1 2 -3 4 -5 0
1 2 -3 -4 5 0
1 -2 3 4 -5 0
1 -2 3 -4 5 0
1 -2 -3 4 5 0
1 -2 -3 -4 -5 0
-1 2 3 4 -5 0
-1 2 3 -4 5 0
-1 2 -3 4 5 0
-1 2 -3 -4 -5 0
-1 -2 3 4 5 0
-1 -2 3 -4 -5 0
-1 -2 -3 4 -5 0
-1 -2 -3 -4 5 0
1 6 7 8 -9 0
1 6 7 -8 9 0
1 6 -7 8 9 0
1 6 -7 -8 -9 0
1 -6 7 8 9 0
1 -6 7 -8 -9 0
1 -6 -7 8 -9 0
1 -6 -7 -8 9 0
-1 6 7 8 9 0
-1 6 7 -8 -9 0
-1 6 -7 8 -9 0
-1 6 -7 -8 9 0
-1 -6 7 8 -9 0
-1 -6 7 -8 9 0
-1 -6 -7 8 9 0
-1 -6 -7 -8 -9 0
2 -10 0
-2 10 0
6 -11 0
-6 11 0
3 7 11 12 -13 0
3 7 11 -12 13 0
3 7 -11 12 13 0
3 7 -11 -12 -13 0
3 -7 11 12 13 0
3 -7 11 -12 -13 0
3 -7 -11 12 -13 0
3 -7 -11 -12 13 0
-3 7 11 12 13 0
-3 7 11 -12 -13 0
-3 7 -11 12 -13 0
-3 7 -11 -12 13 0
-3 -7 11 12 -13 0
-3 -7 11 -12 13 0
-3 -7 -11 12 13 0
-3 -7 -11 -12 -13 0
12 14 -15 0
12 -14 15 0
-12 14 15 0
-12 -14 -15 0
4 8 -16 0
4 -8 16 0
-4 8 16 0
-4 -8 -16 0
5 9 10 13 14 -17 0
5 9 10 13 -14 17 0
5 9 10 -13 14 17 0
5 9 10 -13 -14 -17 0
5 9 -10 13 14 17 0
5 9 -10 13 -14 -17 0
5 9 -10 -13 14 -17 0
5 9 -10 -13 -14 17 0
5 -9 10 13 14 17 0
5 -9 10 13 -14 -17 0
5 -9 10 -13 14 -17 0
5 -9 10 -13 -14 17 0
5 -9 -10 13 14 -17 0
5 -9 -10 13 -14 17 0
5 -9 -10 -13 14 17 0
5 -9 -10 -13 -14 -17 0
-5 9 10 13 14 17 0
-5 9 10 13 -14 -17 0
-5 9 10 -13 14 -17 0
-5 9 10 -13 -14 17 0
-5 9 -10 13 14 -17 0
-5 9 -10 13 -14 17 0
-5 9 -10 -13 14 17 0
-5 9 -10 -13 -14 -17 0
-5 -9 10 13 14 -17 0
-5 -9 10 13 -14 17 0
-5 -9 10 -13 14 17 0
-5 -9 10 -13 -14 -17 0
-5 -9 -10 13 14 17 0
-5 -9 -10 13 -14 -17 0
-5 -9 -10 -13 14 -17 0
-5 -9 -10 -13 -14 17 0
15 16 -17 0
15 -16 17 0
-15 16 17 0
-15 -16 -17 0
